273966.99,16.93,18.54
263786.74,17.58,19.26
275612.45,16.83,18.43
268108.99,17.3,18.95
278665.68,16.64,18.23
282079.86,16.44,18.01
286974.33,16.16,17.7
273581.82,16.95,18.57
284162.65,16.32,17.88
282523.52,16.42,17.98
282095.88,16.44,18.01
281759.23,16.46,18.03
260306.32,17.82,19.51
278713.36,16.64,18.23
288885.92,16.05,17.58
278185.59,16.67,18.26
290623.3,15.96,17.48
271396.98,17.09,18.72
270500.28,17.14,18.78
272335.48,17.03,18.65
